[VALIDATOR STDOUT]
Checking plan: /home/jfan5/Safety-gen/runs/benchmark/optic/grid_20260205_143735/grid/optic_results/grid_x7_y7_sh2_k4_l4_s7001.plan
Plan to validate:

Plan size: 50
1:
(move pos3-4 pos2-4)
 
2:
(move pos2-4 pos1-4)
 
3:
(move pos1-4 pos0-4)
 
4:
(pickup pos0-4 key2)
 
5:
(move pos0-4 pos1-4)
 
6:
(move pos1-4 pos1-3)
 
7:
(move pos1-3 pos1-2)
 
8:
(move pos1-2 pos1-1)
 
9:
(move pos1-1 pos2-1)
 
10:
(move pos2-1 pos3-1)
 
11:
(move pos3-1 pos4-1)
 
12:
(putdown pos4-1 key2)
 
13:
(move pos4-1 pos5-1)
 
14:
(move pos5-1 pos5-0)
 
15:
(pickup pos5-0 key3)
 
16:
(move pos5-0 pos4-0)
 
17:
(move pos4-0 pos3-0)
 
18:
(putdown pos3-0 key3)
 
19:
(move pos3-0 pos4-0)
 
20:
(move pos4-0 pos4-1)
 
21:
(pickup pos4-1 key2)
 
22:
(move pos4-1 pos4-0)
 
23:
(move pos4-0 pos3-0)
 
24:
(move pos3-0 pos2-0)
 
25:
(pickup-and-loose pos2-0 key1 key2)
 
26:
(move pos2-0 pos3-0)
 
27:
(move pos3-0 pos3-1)
 
28:
(move pos3-1 pos4-1)
 
29:
(move pos4-1 pos5-1)
 
30:
(move pos5-1 pos6-1)
 
31:
(putdown pos6-1 key1)
 
32:
(move pos6-1 pos5-1)
 
33:
(move pos5-1 pos4-1)
 
34:
(move pos4-1 pos3-1)
 
35:
(move pos3-1 pos3-0)
 
36:
(pickup pos3-0 key3)
 
37:
(move pos3-0 pos3-1)
 
38:
(move pos3-1 pos2-1)
 
39:
(move pos2-1 pos1-1)
 
40:
(putdown pos1-1 key3)
 
41:
(move pos1-1 pos2-1)
 
42:
(pickup pos2-1 key0)
 
43:
(move pos2-1 pos2-2)
 
44:
(move pos2-2 pos2-3)
 
45:
(move pos2-3 pos2-4)
 
46:
(move pos2-4 pos3-4)
 
47:
(move pos3-4 pos4-4)
 
48:
(move pos4-4 pos5-4)
 
49:
(move pos5-4 pos6-4)
 
50:
(putdown pos6-4 key0)
 

Plan Validation details
-----------------------

Checking next happening (time 1)
Deleting (at-robot pos3-4)
Adding (at-robot pos2-4)

Checking next happening (time 2)
Deleting (at-robot pos2-4)
Adding (at-robot pos1-4)

Checking next happening (time 3)
Deleting (at-robot pos1-4)
Adding (at-robot pos0-4)

Checking next happening (time 4)
Deleting (at key2 pos0-4)
Deleting (arm-empty)
Adding (holding key2)

Checking next happening (time 5)
Deleting (at-robot pos0-4)
Adding (at-robot pos1-4)

Checking next happening (time 6)
Deleting (at-robot pos1-4)
Adding (at-robot pos1-3)

Checking next happening (time 7)
Deleting (at-robot pos1-3)
Adding (at-robot pos1-2)

Checking next happening (time 8)
Deleting (at-robot pos1-2)
Adding (at-robot pos1-1)

Checking next happening (time 9)
Deleting (at-robot pos1-1)
Adding (at-robot pos2-1)

Checking next happening (time 10)
Deleting (at-robot pos2-1)
Adding (at-robot pos3-1)

Checking next happening (time 11)
Deleting (at-robot pos3-1)
Adding (at-robot pos4-1)

Checking next happening (time 12)
Deleting (holding key2)
Adding (arm-empty)
Adding (at key2 pos4-1)

Checking next happening (time 13)
Deleting (at-robot pos4-1)
Adding (at-robot pos5-1)

Checking next happening (time 14)
Deleting (at-robot pos5-1)
Adding (at-robot pos5-0)

Checking next happening (time 15)
Deleting (at key3 pos5-0)
Deleting (arm-empty)
Adding (holding key3)

Checking next happening (time 16)
Deleting (at-robot pos5-0)
Adding (at-robot pos4-0)

Checking next happening (time 17)
Deleting (at-robot pos4-0)
Adding (at-robot pos3-0)

Checking next happening (time 18)
Deleting (holding key3)
Adding (arm-empty)
Adding (at key3 pos3-0)

Checking next happening (time 19)
Deleting (at-robot pos3-0)
Adding (at-robot pos4-0)

Checking next happening (time 20)
Deleting (at-robot pos4-0)
Adding (at-robot pos4-1)

Checking next happening (time 21)
Deleting (at key2 pos4-1)
Deleting (arm-empty)
Adding (holding key2)

Checking next happening (time 22)
Deleting (at-robot pos4-1)
Adding (at-robot pos4-0)

Checking next happening (time 23)
Deleting (at-robot pos4-0)
Adding (at-robot pos3-0)

Checking next happening (time 24)
Deleting (at-robot pos3-0)
Adding (at-robot pos2-0)

Checking next happening (time 25)
Deleting (holding key2)
Deleting (at key1 pos2-0)
Adding (holding key1)
Adding (at key2 pos2-0)

Checking next happening (time 26)
Deleting (at-robot pos2-0)
Adding (at-robot pos3-0)

Checking next happening (time 27)
Deleting (at-robot pos3-0)
Adding (at-robot pos3-1)

Checking next happening (time 28)
Deleting (at-robot pos3-1)
Adding (at-robot pos4-1)

Checking next happening (time 29)
Deleting (at-robot pos4-1)
Adding (at-robot pos5-1)

Checking next happening (time 30)
Deleting (at-robot pos5-1)
Adding (at-robot pos6-1)

Checking next happening (time 31)
Deleting (holding key1)
Adding (arm-empty)
Adding (at key1 pos6-1)

Checking next happening (time 32)
Deleting (at-robot pos6-1)
Adding (at-robot pos5-1)

Checking next happening (time 33)
Deleting (at-robot pos5-1)
Adding (at-robot pos4-1)

Checking next happening (time 34)
Deleting (at-robot pos4-1)
Adding (at-robot pos3-1)

Checking next happening (time 35)
Deleting (at-robot pos3-1)
Adding (at-robot pos3-0)

Checking next happening (time 36)
Deleting (at key3 pos3-0)
Deleting (arm-empty)
Adding (holding key3)

Checking next happening (time 37)
Deleting (at-robot pos3-0)
Adding (at-robot pos3-1)

Checking next happening (time 38)
Deleting (at-robot pos3-1)
Adding (at-robot pos2-1)

Checking next happening (time 39)
Deleting (at-robot pos2-1)
Adding (at-robot pos1-1)

Checking next happening (time 40)
Deleting (holding key3)
Adding (arm-empty)
Adding (at key3 pos1-1)

Checking next happening (time 41)
Deleting (at-robot pos1-1)
Adding (at-robot pos2-1)

Checking next happening (time 42)
Deleting (at key0 pos2-1)
Deleting (arm-empty)
Adding (holding key0)

Checking next happening (time 43)
Deleting (at-robot pos2-1)
Adding (at-robot pos2-2)

Checking next happening (time 44)
Deleting (at-robot pos2-2)
Adding (at-robot pos2-3)

Checking next happening (time 45)
Deleting (at-robot pos2-3)
Adding (at-robot pos2-4)

Checking next happening (time 46)
Deleting (at-robot pos2-4)
Adding (at-robot pos3-4)

Checking next happening (time 47)
Deleting (at-robot pos3-4)
Adding (at-robot pos4-4)

Checking next happening (time 48)
Deleting (at-robot pos4-4)
Adding (at-robot pos5-4)

Checking next happening (time 49)
Deleting (at-robot pos5-4)
Adding (at-robot pos6-4)

Checking next happening (time 50)
Deleting (holding key0)
Adding (arm-empty)
Adding (at key0 pos6-4)
Plan executed successfully - checking goal
Plan valid
Final value: 50 

Successful plans:
Value: 50
 /home/jfan5/Safety-gen/runs/benchmark/optic/grid_20260205_143735/grid/optic_results/grid_x7_y7_sh2_k4_l4_s7001.plan 50
